c description: There is a graph of 10 vertices with a 3-clique and a 3-coloring
c generator: CNFgen (0.9.0)
c copyright: (C) 2012-2020 Massimo Lauria <massimo.lauria@uniroma1.it>
c url: https://massimolauria.net/cnfgen
c
p cnf 105 613
-46 -47 0
-46 -48 0
-46 -49 0
-46 -50 0
-46 -51 0
-46 -52 0
-46 -53 0
-46 -54 0
-46 -55 0
-47 -48 0
-47 -49 0
-47 -50 0
-47 -51 0
-47 -52 0
-47 -53 0
-47 -54 0
-47 -55 0
-48 -49 0
-48 -50 0
-48 -51 0
-48 -52 0
-48 -53 0
-48 -54 0
-48 -55 0
-49 -50 0
-49 -51 0
-49 -52 0
-49 -53 0
-49 -54 0
-49 -55 0
-50 -51 0
-50 -52 0
-50 -53 0
-50 -54 0
-50 -55 0
-51 -52 0
-51 -53 0
-51 -54 0
-51 -55 0
-52 -53 0
-52 -54 0
-52 -55 0
-53 -54 0
-53 -55 0
-54 -55 0
46 47 48 49 50 51 52 53 54 55 0
-56 -57 0
-56 -58 0
-56 -59 0
-56 -60 0
-56 -61 0
-56 -62 0
-56 -63 0
-56 -64 0
-56 -65 0
-57 -58 0
-57 -59 0
-57 -60 0
-57 -61 0
-57 -62 0
-57 -63 0
-57 -64 0
-57 -65 0
-58 -59 0
-58 -60 0
-58 -61 0
-58 -62 0
-58 -63 0
-58 -64 0
-58 -65 0
-59 -60 0
-59 -61 0
-59 -62 0
-59 -63 0
-59 -64 0
-59 -65 0
-60 -61 0
-60 -62 0
-60 -63 0
-60 -64 0
-60 -65 0
-61 -62 0
-61 -63 0
-61 -64 0
-61 -65 0
-62 -63 0
-62 -64 0
-62 -65 0
-63 -64 0
-63 -65 0
-64 -65 0
56 57 58 59 60 61 62 63 64 65 0
-66 -67 0
-66 -68 0
-66 -69 0
-66 -70 0
-66 -71 0
-66 -72 0
-66 -73 0
-66 -74 0
-66 -75 0
-67 -68 0
-67 -69 0
-67 -70 0
-67 -71 0
-67 -72 0
-67 -73 0
-67 -74 0
-67 -75 0
-68 -69 0
-68 -70 0
-68 -71 0
-68 -72 0
-68 -73 0
-68 -74 0
-68 -75 0
-69 -70 0
-69 -71 0
-69 -72 0
-69 -73 0
-69 -74 0
-69 -75 0
-70 -71 0
-70 -72 0
-70 -73 0
-70 -74 0
-70 -75 0
-71 -72 0
-71 -73 0
-71 -74 0
-71 -75 0
-72 -73 0
-72 -74 0
-72 -75 0
-73 -74 0
-73 -75 0
-74 -75 0
66 67 68 69 70 71 72 73 74 75 0
-46 -56 0
-46 -66 0
-56 -66 0
-47 -57 0
-47 -67 0
-57 -67 0
-48 -58 0
-48 -68 0
-58 -68 0
-49 -59 0
-49 -69 0
-59 -69 0
-50 -60 0
-50 -70 0
-60 -70 0
-51 -61 0
-51 -71 0
-61 -71 0
-52 -62 0
-52 -72 0
-62 -72 0
-53 -63 0
-53 -73 0
-63 -73 0
-54 -64 0
-54 -74 0
-64 -74 0
-55 -65 0
-55 -75 0
-65 -75 0
1 -46 -57 0
1 -46 -67 0
1 -56 -47 0
1 -56 -67 0
1 -66 -47 0
1 -66 -57 0
2 -46 -58 0
2 -46 -68 0
2 -56 -48 0
2 -56 -68 0
2 -66 -48 0
2 -66 -58 0
3 -46 -59 0
3 -46 -69 0
3 -56 -49 0
3 -56 -69 0
3 -66 -49 0
3 -66 -59 0
4 -46 -60 0
4 -46 -70 0
4 -56 -50 0
4 -56 -70 0
4 -66 -50 0
4 -66 -60 0
5 -46 -61 0
5 -46 -71 0
5 -56 -51 0
5 -56 -71 0
5 -66 -51 0
5 -66 -61 0
6 -46 -62 0
6 -46 -72 0
6 -56 -52 0
6 -56 -72 0
6 -66 -52 0
6 -66 -62 0
7 -46 -63 0
7 -46 -73 0
7 -56 -53 0
7 -56 -73 0
7 -66 -53 0
7 -66 -63 0
8 -46 -64 0
8 -46 -74 0
8 -56 -54 0
8 -56 -74 0
8 -66 -54 0
8 -66 -64 0
9 -46 -65 0
9 -46 -75 0
9 -56 -55 0
9 -56 -75 0
9 -66 -55 0
9 -66 -65 0
10 -47 -58 0
10 -47 -68 0
10 -57 -48 0
10 -57 -68 0
10 -67 -48 0
10 -67 -58 0
11 -47 -59 0
11 -47 -69 0
11 -57 -49 0
11 -57 -69 0
11 -67 -49 0
11 -67 -59 0
12 -47 -60 0
12 -47 -70 0
12 -57 -50 0
12 -57 -70 0
12 -67 -50 0
12 -67 -60 0
13 -47 -61 0
13 -47 -71 0
13 -57 -51 0
13 -57 -71 0
13 -67 -51 0
13 -67 -61 0
14 -47 -62 0
14 -47 -72 0
14 -57 -52 0
14 -57 -72 0
14 -67 -52 0
14 -67 -62 0
15 -47 -63 0
15 -47 -73 0
15 -57 -53 0
15 -57 -73 0
15 -67 -53 0
15 -67 -63 0
16 -47 -64 0
16 -47 -74 0
16 -57 -54 0
16 -57 -74 0
16 -67 -54 0
16 -67 -64 0
17 -47 -65 0
17 -47 -75 0
17 -57 -55 0
17 -57 -75 0
17 -67 -55 0
17 -67 -65 0
18 -48 -59 0
18 -48 -69 0
18 -58 -49 0
18 -58 -69 0
18 -68 -49 0
18 -68 -59 0
19 -48 -60 0
19 -48 -70 0
19 -58 -50 0
19 -58 -70 0
19 -68 -50 0
19 -68 -60 0
20 -48 -61 0
20 -48 -71 0
20 -58 -51 0
20 -58 -71 0
20 -68 -51 0
20 -68 -61 0
21 -48 -62 0
21 -48 -72 0
21 -58 -52 0
21 -58 -72 0
21 -68 -52 0
21 -68 -62 0
22 -48 -63 0
22 -48 -73 0
22 -58 -53 0
22 -58 -73 0
22 -68 -53 0
22 -68 -63 0
23 -48 -64 0
23 -48 -74 0
23 -58 -54 0
23 -58 -74 0
23 -68 -54 0
23 -68 -64 0
24 -48 -65 0
24 -48 -75 0
24 -58 -55 0
24 -58 -75 0
24 -68 -55 0
24 -68 -65 0
25 -49 -60 0
25 -49 -70 0
25 -59 -50 0
25 -59 -70 0
25 -69 -50 0
25 -69 -60 0
26 -49 -61 0
26 -49 -71 0
26 -59 -51 0
26 -59 -71 0
26 -69 -51 0
26 -69 -61 0
27 -49 -62 0
27 -49 -72 0
27 -59 -52 0
27 -59 -72 0
27 -69 -52 0
27 -69 -62 0
28 -49 -63 0
28 -49 -73 0
28 -59 -53 0
28 -59 -73 0
28 -69 -53 0
28 -69 -63 0
29 -49 -64 0
29 -49 -74 0
29 -59 -54 0
29 -59 -74 0
29 -69 -54 0
29 -69 -64 0
30 -49 -65 0
30 -49 -75 0
30 -59 -55 0
30 -59 -75 0
30 -69 -55 0
30 -69 -65 0
31 -50 -61 0
31 -50 -71 0
31 -60 -51 0
31 -60 -71 0
31 -70 -51 0
31 -70 -61 0
32 -50 -62 0
32 -50 -72 0
32 -60 -52 0
32 -60 -72 0
32 -70 -52 0
32 -70 -62 0
33 -50 -63 0
33 -50 -73 0
33 -60 -53 0
33 -60 -73 0
33 -70 -53 0
33 -70 -63 0
34 -50 -64 0
34 -50 -74 0
34 -60 -54 0
34 -60 -74 0
34 -70 -54 0
34 -70 -64 0
35 -50 -65 0
35 -50 -75 0
35 -60 -55 0
35 -60 -75 0
35 -70 -55 0
35 -70 -65 0
36 -51 -62 0
36 -51 -72 0
36 -61 -52 0
36 -61 -72 0
36 -71 -52 0
36 -71 -62 0
37 -51 -63 0
37 -51 -73 0
37 -61 -53 0
37 -61 -73 0
37 -71 -53 0
37 -71 -63 0
38 -51 -64 0
38 -51 -74 0
38 -61 -54 0
38 -61 -74 0
38 -71 -54 0
38 -71 -64 0
39 -51 -65 0
39 -51 -75 0
39 -61 -55 0
39 -61 -75 0
39 -71 -55 0
39 -71 -65 0
40 -52 -63 0
40 -52 -73 0
40 -62 -53 0
40 -62 -73 0
40 -72 -53 0
40 -72 -63 0
41 -52 -64 0
41 -52 -74 0
41 -62 -54 0
41 -62 -74 0
41 -72 -54 0
41 -72 -64 0
42 -52 -65 0
42 -52 -75 0
42 -62 -55 0
42 -62 -75 0
42 -72 -55 0
42 -72 -65 0
43 -53 -64 0
43 -53 -74 0
43 -63 -54 0
43 -63 -74 0
43 -73 -54 0
43 -73 -64 0
44 -53 -65 0
44 -53 -75 0
44 -63 -55 0
44 -63 -75 0
44 -73 -55 0
44 -73 -65 0
45 -54 -65 0
45 -54 -75 0
45 -64 -55 0
45 -64 -75 0
45 -74 -55 0
45 -74 -65 0
-76 -77 0
-76 -78 0
-77 -78 0
76 77 78 0
-79 -80 0
-79 -81 0
-80 -81 0
79 80 81 0
-82 -83 0
-82 -84 0
-83 -84 0
82 83 84 0
-85 -86 0
-85 -87 0
-86 -87 0
85 86 87 0
-88 -89 0
-88 -90 0
-89 -90 0
88 89 90 0
-91 -92 0
-91 -93 0
-92 -93 0
91 92 93 0
-94 -95 0
-94 -96 0
-95 -96 0
94 95 96 0
-97 -98 0
-97 -99 0
-98 -99 0
97 98 99 0
-100 -101 0
-100 -102 0
-101 -102 0
100 101 102 0
-103 -104 0
-103 -105 0
-104 -105 0
103 104 105 0
-1 -76 -79 0
-1 -77 -80 0
-1 -78 -81 0
-2 -76 -82 0
-2 -77 -83 0
-2 -78 -84 0
-3 -76 -85 0
-3 -77 -86 0
-3 -78 -87 0
-4 -76 -88 0
-4 -77 -89 0
-4 -78 -90 0
-5 -76 -91 0
-5 -77 -92 0
-5 -78 -93 0
-6 -76 -94 0
-6 -77 -95 0
-6 -78 -96 0
-7 -76 -97 0
-7 -77 -98 0
-7 -78 -99 0
-8 -76 -100 0
-8 -77 -101 0
-8 -78 -102 0
-9 -76 -103 0
-9 -77 -104 0
-9 -78 -105 0
-10 -79 -82 0
-10 -80 -83 0
-10 -81 -84 0
-11 -79 -85 0
-11 -80 -86 0
-11 -81 -87 0
-12 -79 -88 0
-12 -80 -89 0
-12 -81 -90 0
-13 -79 -91 0
-13 -80 -92 0
-13 -81 -93 0
-14 -79 -94 0
-14 -80 -95 0
-14 -81 -96 0
-15 -79 -97 0
-15 -80 -98 0
-15 -81 -99 0
-16 -79 -100 0
-16 -80 -101 0
-16 -81 -102 0
-17 -79 -103 0
-17 -80 -104 0
-17 -81 -105 0
-18 -82 -85 0
-18 -83 -86 0
-18 -84 -87 0
-19 -82 -88 0
-19 -83 -89 0
-19 -84 -90 0
-20 -82 -91 0
-20 -83 -92 0
-20 -84 -93 0
-21 -82 -94 0
-21 -83 -95 0
-21 -84 -96 0
-22 -82 -97 0
-22 -83 -98 0
-22 -84 -99 0
-23 -82 -100 0
-23 -83 -101 0
-23 -84 -102 0
-24 -82 -103 0
-24 -83 -104 0
-24 -84 -105 0
-25 -85 -88 0
-25 -86 -89 0
-25 -87 -90 0
-26 -85 -91 0
-26 -86 -92 0
-26 -87 -93 0
-27 -85 -94 0
-27 -86 -95 0
-27 -87 -96 0
-28 -85 -97 0
-28 -86 -98 0
-28 -87 -99 0
-29 -85 -100 0
-29 -86 -101 0
-29 -87 -102 0
-30 -85 -103 0
-30 -86 -104 0
-30 -87 -105 0
-31 -88 -91 0
-31 -89 -92 0
-31 -90 -93 0
-32 -88 -94 0
-32 -89 -95 0
-32 -90 -96 0
-33 -88 -97 0
-33 -89 -98 0
-33 -90 -99 0
-34 -88 -100 0
-34 -89 -101 0
-34 -90 -102 0
-35 -88 -103 0
-35 -89 -104 0
-35 -90 -105 0
-36 -91 -94 0
-36 -92 -95 0
-36 -93 -96 0
-37 -91 -97 0
-37 -92 -98 0
-37 -93 -99 0
-38 -91 -100 0
-38 -92 -101 0
-38 -93 -102 0
-39 -91 -103 0
-39 -92 -104 0
-39 -93 -105 0
-40 -94 -97 0
-40 -95 -98 0
-40 -96 -99 0
-41 -94 -100 0
-41 -95 -101 0
-41 -96 -102 0
-42 -94 -103 0
-42 -95 -104 0
-42 -96 -105 0
-43 -97 -100 0
-43 -98 -101 0
-43 -99 -102 0
-44 -97 -103 0
-44 -98 -104 0
-44 -99 -105 0
-45 -100 -103 0
-45 -101 -104 0
-45 -102 -105 0